(set-logic ALL)
(declare-const BAV1 Bool)
(declare-const BAV2 Bool)
(declare-const BAV3 Bool)
(declare-const BAV4 Bool)
(declare-const BAV5 Bool)
(declare-const BAV6 Bool)
(declare-sort S 0)
(declare-sort T 0)
(declare-fun s1 () S)
(declare-fun s2 () S)
(declare-fun s3 () S)
(declare-fun a () (_ BitVec 1))
(declare-fun b () (_ BitVec 1))
(declare-fun c () (_ BitVec 1))
(assert (not (= s1 s2)))
(assert (not (= s2 s3)))
(assert (not (= s3 s1)))
(assert (not (= a b)))
(assert (not (= b c)))
(assert (not (= c a)))
(assert (= BAV1 (= s1 s2)))
(assert (= BAV2 (= s2 s3)))
(assert (= BAV3 (= s3 s1)))
(assert (= BAV4 (= a b)))
(assert (= BAV5 (= b c)))
(assert (= BAV6 (= c a)))
(check-sat)
(get-model)
(exit)